n = 18;

R =
[|0,3,8,4,4,4,4,0,0,0,6,6,6,6,6,6,0,0,
 |0,3,8,0,0,2,0,2,2,7,0,0,0,0,0,0,0,0,
 |0,3,8,0,0,2,0,0,4,7,0,0,0,0,0,5,7,0,
 |0,0,8,0,0,0,0,0,4,7,0,0,0,0,0,5,7,0,
 |4,0,8,0,0,0,0,2,4,7,0,0,0,0,0,5,7,0,
 |4,6,8,0,0,0,7,2,4,7,4,0,0,0,0,5,7,9,
 |4,6,8,0,0,0,7,0,0,7,4,0,2,0,0,5,7,9,
 |4,6,8,1,6,1,7,0,0,7,4,0,2,0,0,0,7,9,
 |2,6,0,0,6,0,7,0,0,1,4,0,3,3,3,0,7,9,
 |2,6,0,0,6,6,7,8,8,8,8,8,8,8,8,0,0,9,
 |0,6,0,0,6,6,7,0,0,6,0,0,0,0,0,0,0,9,
 |0,0,0,0,6,6,7,0,0,6,1,0,0,0,0,0,0,9,
 |0,0,0,0,6,6,0,0,0,6,4,6,6,6,6,6,6,9,
 |0,0,0,0,0,6,1,0,0,6,4,0,5,5,5,5,5,9,
 |0,0,0,0,0,6,0,0,0,6,4,4,4,4,4,0,0,0,
 |0,0,0,0,0,0,0,0,0,6,4,0,0,0,0,0,0,0,
 |0,0,1,0,0,3,3,3,2,2,0,0,0,0,0,0,0,0,
 |0,0,0,0,0,0,0,0,0,0,0,0,1,0,0,0,0,0,
 |];

